results/x-10M/X-n129-k18.vrp_seed-1.out
28940	10330
