results/x-10M/X-n129-k18.vrp_seed-1.vrp.sol
Route #1: 3
Route #2: 67 30 43 84 25 39 93
Route #3: 47 127 28 118 38
Route #4: 19 48 2 34 21 33 46 22 7
Route #5: 91 75 103 89 66 15
Route #6: 86 88 113 27 52 20 50
Route #7: 64 18 59 23 1 44 90
Route #8: 83 109 51 120 69 31 125
Route #9: 82 124 9 63 119 78
Route #10: 60 77 35 57 13 56 62
Route #11: 24 97 8 37 12 16 42 99 14 74
Route #12: 70 117 115 122 106 5 123
Route #13: 110 17 101 58 40 55 41 61 85 11 126
Route #14: 71 65 105 76 79 10 104 108
Route #15: 53 80 68 98 4 111 94 121
Route #16: 102 112 72 26 36 107
Route #17: 87 128 81 29 45 6 54
Route #18: 100 49 92 116 95 96 73 114 32
Cost 28940.000000